21° run output:
{
    "Function": "ClusterA500.tsp",
    "Problem dimension": [
        472,
        254,
        253,
        403,
        391,
        313,
        110,
        439,
        191,
        116,
        488,
        62,
        346,
        41,
        217,
        154,
        467,
        202,
        286,
        320,
        248,
        76,
        278,
        169,
        243,
        410,
        482,
        436,
        312,
        203,
        115,
        95,
        192,
        128,
        302,
        333,
        195,
        242,
        240,
        371,
        279,
        201,
        474,
        205,
        251,
        157,
        431,
        150,
        208,
        68,
        348,
        72,
        386,
        451,
        108,
        339,
        277,
        238,
        398,
        393,
        304,
        362,
        334,
        301,
        174,
        226,
        176,
        28,
        100,
        40,
        228,
        54,
        370,
        440,
        148,
        15,
        188,
        53,
        8,
        82,
        77,
        140,
        372,
        78,
        325,
        345,
        479,
        349,
        271,
        411,
        20,
        162,
        466,
        454,
        408,
        497,
        290,
        219,
        399,
        364,
        480,
        392,
        499,
        200,
        122,
        496,
        483,
        97,
        121,
        469,
        336,
        69,
        359,
        401,
        443,
        51,
        45,
        127,
        270,
        233,
        67,
        477,
        255,
        79,
        343,
        293,
        457,
        58,
        131,
        93,
        462,
        104,
        223,
        338,
        375,
        199,
        9,
        147,
        220,
        276,
        166,
        273,
        361,
        19,
        352,
        445,
        12,
        323,
        160,
        412,
        257,
        229,
        455,
        354,
        204,
        314,
        299,
        49,
        39,
        418,
        461,
        428,
        317,
        471,
        288,
        328,
        10,
        13,
        498,
        213,
        1,
        407,
        151,
        80,
        378,
        155,
        137,
        262,
        494,
        415,
        149,
        27,
        134,
        342,
        132,
        422,
        413,
        459,
        441,
        146,
        14,
        465,
        267,
        311,
        55,
        129,
        232,
        390,
        377,
        21,
        206,
        197,
        59,
        464,
        60,
        473,
        437,
        481,
        241,
        335,
        460,
        425,
        366,
        484,
        300,
        105,
        250,
        34,
        357,
        363,
        3,
        307,
        476,
        214,
        321,
        103,
        114,
        296,
        52,
        130,
        92,
        282,
        119,
        96,
        22,
        329,
        171,
        113,
        376,
        37,
        268,
        236,
        264,
        120,
        341,
        165,
        419,
        340,
        207,
        234,
        316,
        450,
        287,
        379,
        168,
        360,
        490,
        118,
        249,
        351,
        493,
        417,
        406,
        109,
        180,
        65,
        124,
        89,
        33,
        368,
        280,
        88,
        305,
        409,
        43,
        230,
        215,
        17,
        275,
        135,
        416,
        94,
        420,
        125,
        427,
        442,
        258,
        237,
        380,
        75,
        332,
        158,
        184,
        468,
        448,
        414,
        25,
        181,
        185,
        91,
        315,
        211,
        421,
        210,
        404,
        327,
        429,
        6,
        491,
        222,
        0,
        225,
        32,
        306,
        144,
        374,
        38,
        387,
        90,
        196,
        87,
        331,
        291,
        388,
        246,
        111,
        177,
        475,
        36,
        447,
        175,
        70,
        142,
        2,
        29,
        456,
        48,
        402,
        172,
        319,
        143,
        24,
        367,
        438,
        218,
        84,
        193,
        396,
        292,
        167,
        330,
        383,
        61,
        73,
        486,
        221,
        156,
        297,
        492,
        133,
        164,
        189,
        138,
        261,
        5,
        303,
        424,
        71,
        46,
        432,
        309,
        260,
        198,
        141,
        389,
        244,
        117,
        272,
        449,
        487,
        50,
        145,
        385,
        298,
        433,
        310,
        30,
        107,
        274,
        63,
        381,
        353,
        74,
        16,
        224,
        485,
        173,
        322,
        186,
        423,
        294,
        430,
        356,
        426,
        66,
        98,
        99,
        369,
        187,
        7,
        324,
        231,
        259,
        179,
        190,
        252,
        434,
        212,
        123,
        265,
        86,
        182,
        478,
        4,
        161,
        453,
        11,
        266,
        285,
        83,
        101,
        295,
        56,
        435,
        235,
        31,
        452,
        159,
        347,
        382,
        178,
        44,
        495,
        106,
        227,
        209,
        256,
        326,
        152,
        194,
        355,
        281,
        112,
        153,
        170,
        394,
        344,
        183,
        489,
        57,
        289,
        405,
        350,
        373,
        283,
        85,
        136,
        23,
        245,
        47,
        470,
        126,
        384,
        444,
        397,
        358,
        269,
        463,
        337,
        26,
        365,
        42,
        64,
        318,
        400,
        18,
        263,
        458,
        216,
        308,
        446,
        395,
        81,
        239,
        139,
        247,
        35,
        163,
        102,
        284
    ],
    "Global Optimum": 0,
    "Algorithm": "Genetic algorithm",
    "Parameters": {
        "population": 30,
        "offspring": 30,
        "mutation probability": 0.002,
        "crossover probability": 0.9
    },
    "Fitness": 659921,
    "Solution": [
        472,
        254,
        253,
        403,
        391,
        313,
        110,
        439,
        191,
        116,
        488,
        62,
        346,
        41,
        217,
        154,
        467,
        202,
        286,
        320,
        248,
        76,
        278,
        169,
        243,
        410,
        482,
        436,
        312,
        203,
        115,
        95,
        192,
        128,
        302,
        333,
        195,
        242,
        240,
        371,
        279,
        201,
        474,
        205,
        251,
        157,
        431,
        150,
        208,
        68,
        348,
        72,
        386,
        451,
        108,
        339,
        277,
        238,
        398,
        393,
        304,
        362,
        334,
        301,
        174,
        226,
        176,
        28,
        100,
        40,
        228,
        54,
        370,
        440,
        148,
        15,
        188,
        53,
        8,
        82,
        77,
        140,
        372,
        78,
        325,
        345,
        479,
        349,
        271,
        411,
        20,
        162,
        466,
        454,
        408,
        497,
        290,
        219,
        399,
        364,
        480,
        392,
        499,
        200,
        122,
        496,
        483,
        97,
        121,
        469,
        336,
        69,
        359,
        401,
        443,
        51,
        45,
        127,
        270,
        233,
        67,
        477,
        255,
        79,
        343,
        293,
        457,
        58,
        131,
        93,
        462,
        104,
        223,
        338,
        375,
        199,
        9,
        147,
        220,
        276,
        166,
        273,
        361,
        19,
        352,
        445,
        12,
        323,
        160,
        412,
        257,
        229,
        455,
        354,
        204,
        314,
        299,
        49,
        39,
        418,
        461,
        428,
        317,
        471,
        288,
        328,
        10,
        13,
        498,
        213,
        1,
        407,
        151,
        80,
        378,
        155,
        137,
        262,
        494,
        415,
        149,
        27,
        134,
        342,
        132,
        422,
        413,
        459,
        441,
        146,
        14,
        465,
        267,
        311,
        55,
        129,
        232,
        390,
        377,
        21,
        206,
        197,
        59,
        464,
        60,
        473,
        437,
        481,
        241,
        335,
        460,
        425,
        366,
        484,
        300,
        105,
        250,
        34,
        357,
        363,
        3,
        307,
        476,
        214,
        321,
        103,
        114,
        296,
        52,
        130,
        92,
        282,
        119,
        96,
        22,
        329,
        171,
        113,
        376,
        37,
        268,
        236,
        264,
        120,
        341,
        165,
        419,
        340,
        207,
        234,
        316,
        450,
        287,
        379,
        168,
        360,
        490,
        118,
        249,
        351,
        493,
        417,
        406,
        109,
        180,
        65,
        124,
        89,
        33,
        368,
        280,
        88,
        305,
        409,
        43,
        230,
        215,
        17,
        275,
        135,
        416,
        94,
        420,
        125,
        427,
        442,
        258,
        237,
        380,
        75,
        332,
        158,
        184,
        468,
        448,
        414,
        25,
        181,
        185,
        91,
        315,
        211,
        421,
        210,
        404,
        327,
        429,
        6,
        491,
        222,
        0,
        225,
        32,
        306,
        144,
        374,
        38,
        387,
        90,
        196,
        87,
        331,
        291,
        388,
        246,
        111,
        177,
        475,
        36,
        447,
        175,
        70,
        142,
        2,
        29,
        456,
        48,
        402,
        172,
        319,
        143,
        24,
        367,
        438,
        218,
        84,
        193,
        396,
        292,
        167,
        330,
        383,
        61,
        73,
        486,
        221,
        156,
        297,
        492,
        133,
        164,
        189,
        138,
        261,
        5,
        303,
        424,
        71,
        46,
        432,
        309,
        260,
        198,
        141,
        389,
        244,
        117,
        272,
        449,
        487,
        50,
        145,
        385,
        298,
        433,
        310,
        30,
        107,
        274,
        63,
        381,
        353,
        74,
        16,
        224,
        485,
        173,
        322,
        186,
        423,
        294,
        430,
        356,
        426,
        66,
        98,
        99,
        369,
        187,
        7,
        324,
        231,
        259,
        179,
        190,
        252,
        434,
        212,
        123,
        265,
        86,
        182,
        478,
        4,
        161,
        453,
        11,
        266,
        285,
        83,
        101,
        295,
        56,
        435,
        235,
        31,
        452,
        159,
        347,
        382,
        178,
        44,
        495,
        106,
        227,
        209,
        256,
        326,
        152,
        194,
        355,
        281,
        112,
        153,
        170,
        394,
        344,
        183,
        489,
        57,
        289,
        405,
        350,
        373,
        283,
        85,
        136,
        23,
        245,
        47,
        470,
        126,
        384,
        444,
        397,
        358,
        269,
        463,
        337,
        26,
        365,
        42,
        64,
        318,
        400,
        18,
        263,
        458,
        216,
        308,
        446,
        395,
        81,
        239,
        139,
        247,
        35,
        163,
        102,
        284
    ],
    "Nb of functions evaluations": 50010,
    "Computational time in seconds": 376.62094378471375,
    "Stopping criterion in evaluations": 50000
}